c Reduced graph for p25 generated by Cyril Grelier
p edge 36 120
e 1 3
e 1 6
e 1 14
e 1 15
e 1 19
e 1 22
e 1 33
e 2 4
e 2 9
e 2 10
e 2 15
e 2 18
e 2 24
e 3 6
e 3 14
e 3 21
e 3 23
e 3 24
e 3 33
e 3 35
e 4 5
e 4 15
e 4 18
e 4 20
e 4 24
e 4 29
e 5 20
e 5 21
e 5 29
e 6 12
e 6 14
e 6 31
e 6 33
e 7 11
e 7 14
e 7 22
e 7 29
e 7 30
e 7 32
e 8 10
e 8 12
e 8 19
e 8 25
e 8 26
e 8 28
e 8 30
e 8 32
e 8 34
e 8 36
e 9 10
e 9 13
e 9 23
e 9 36
e 10 12
e 10 19
e 10 26
e 10 32
e 11 14
e 11 25
e 11 27
e 11 31
e 11 32
e 11 35
e 12 19
e 12 26
e 12 31
e 12 32
e 13 17
e 13 18
e 13 23
e 13 26
e 13 36
e 14 32
e 14 33
e 15 18
e 15 19
e 15 22
e 15 24
e 16 27
e 16 28
e 16 33
e 17 18
e 17 20
e 17 26
e 17 34
e 18 24
e 18 26
e 19 22
e 19 26
e 19 32
e 20 29
e 20 34
e 21 23
e 21 24
e 21 35
e 22 29
e 22 30
e 23 24
e 23 35
e 23 36
e 24 35
e 25 27
e 25 28
e 25 30
e 25 31
e 25 34
e 25 35
e 25 36
e 26 32
e 27 31
e 27 33
e 27 35
e 28 30
e 28 34
e 28 36
e 29 30
e 30 34
e 30 36
e 31 35
e 34 36
